&GLOBAL
  PROJECT Si_bulk8
  RUN_TYPE ENERGY_FORCE
  PRINT_LEVEL LOW
&END GLOBAL
&FORCE_EVAL
  METHOD Quickstep
  &SUBSYS
    &KIND C
      ELEMENT	C
      BASIS_SET DZVP-GTH-PADE
      POTENTIAL GTH-PADE-q4
    &END KIND
    &CELL
      A     3.567          0.000000000    0.000000000
      B     0.000000000    3.567          0.000000000
      C     0.000000000    0.000000000    3.567
    &END CELL
    &COORD
      C    0.000000000    0.000000000    0.000000000
      C    0.000000000    1.7835         1.7835
      C    1.7835         1.7835         0.000000000
      C    1.7835         0.000000000    1.7835
      C    2.67525        0.89175        2.67525
      C    0.89175        0.89175        0.89175
      C    0.89175        2.67525        2.67525
      C    2.67525        2.67525        0.89175
    &END COORD
  &END SUBSYS
  &DFT
    BASIS_SET_FILE_NAME  BASIS_SET
    POTENTIAL_FILE_NAME  GTH_POTENTIALS
    &QS
      EPS_DEFAULT 1.0E-10
    &END QS
    &MGRID
      NGRIDS 4
      CUTOFF 300
      REL_CUTOFF 60
    &END MGRID

    &PRINT               
       &MO_CUBES
       WRITE_CUBE .FALSE. 
       NHOMO 1            
       NLUMO 1          
       &END
    &END

    &XC
      &XC_FUNCTIONAL LDA
      &END XC_FUNCTIONAL
    &END XC
    &SCF
      SCF_GUESS ATOMIC
      EPS_SCF 1.0E-7
      MAX_SCF 300
      &DIAGONALIZATION  ON
        ALGORITHM STANDARD
      &END DIAGONALIZATION
      &MIXING  T
        METHOD BROYDEN_MIXING
        ALPHA 0.4
        NBROYDEN 8
      &END MIXING
    &END SCF
  &END DFT
  &PRINT
    &FORCES ON
    &END FORCES
  &END PRINT
&END FORCE_EVAL
